c Result of efficient AIG-to-CNF conversion using package CNF
p cnf 38 101
1 -34 35 0
-1 34 0
-1 -35 0
2 34 -35 0
-2 -34 0
-2 35 0
3 1 2 0
-3 -1 0
-3 -2 0
4 35 -36 0
-4 -35 0
-4 36 0
5 34 -4 0
-5 -34 0
-5 4 0
6 -35 36 0
-6 35 0
-6 -36 0
7 -34 -6 0
-7 34 0
-7 6 0
8 5 7 0
-8 -5 0
-8 -7 0
9 34 5 0
-9 -34 0
-9 -5 0
10 -8 9 0
-10 8 0
-10 -9 0
11 8 -9 0
-11 -8 0
-11 9 0
12 10 11 0
-12 -10 0
-12 -11 0
13 36 10 0
-13 -36 0
-13 -10 0
14 -36 -10 0
-14 36 0
-14 10 0
15 13 14 0
-15 -13 0
-15 -14 0
16 36 -15 0
-16 -36 0
-16 15 0
17 -36 15 0
-17 36 0
-17 -15 0
18 16 17 0
-18 -16 0
-18 -17 0
19 36 -3 0
-19 -36 0
-19 3 0
20 -12 19 0
-20 12 0
-20 -19 0
21 12 -19 0
-21 -12 0
-21 19 0
22 20 21 0
-22 -20 0
-22 -21 0
23 -12 -19 0
-23 12 0
-23 19 0
24 -18 23 0
-24 18 0
-24 -23 0
25 18 -23 0
-25 -18 0
-25 23 0
26 24 25 0
-26 -24 0
-26 -25 0
27 10 12 0
-27 -10 0
-27 -12 0
28 -10 22 0
-28 10 0
-28 -22 0
29 27 28 0
-29 -27 0
-29 -28 0
30 10 18 0
-30 -10 0
-30 -18 0
31 -10 26 0
-31 10 0
-31 -26 0
32 30 31 0
-32 -30 0
-32 -31 0
33 -29 -32 0
-33 29 0
-33 32 0
37 0
33 0

